
===== New CPLEX run =====
Instance: /home/yorig/tuner/mpils-tests/instances/miplib/easy/lotsize.mps
Config: /scratch/yorig/mpils-results-grid-seconds-5-watchdog/easy/24proc/seed-5/4_lotsize_seed-5_20260504_011421/expansion/config_param_CPXPARAM_MIP_Strategy_VariableSelect_1_iter_1.prm
========================

Selected objective sense:  MINIMIZE
Selected objective  name:  R1921
Selected RHS        name:  B
Selected bound      name:  BOUND
Wall watchdog: enabled factor=1 grace=1 limit=6 seconds
Version identifier: 22.1.2.0 | 2024-11-26 | 0edbb82fd
CPXPARAM_Threads                                 8
CPXPARAM_Parallel                                1
CPXPARAM_MIP_Cuts_Cliques                        -1
CPXPARAM_MIP_Strategy_VariableSelect             1
CPXPARAM_MIP_Cuts_Implied                        1
CPXPARAM_MIP_Limits_GomoryCand                   25
CPXPARAM_MIP_Cuts_Gomory                         1
CPXPARAM_MIP_Cuts_PathCut                        2
CPXPARAM_MIP_Cuts_Disjunctive                    -1
CPXPARAM_Emphasis_MIP                            1
CPXPARAM_TimeLimit                               5
Tried aggregator 1 time.
MIP Presolve eliminated 595 rows and 0 columns.
MIP Presolve added 1190 rows and 0 columns.
MIP Presolve modified 10 coefficients.
Reduced MIP has 2515 rows, 2985 columns, and 7755 nonzeros.
Reduced MIP has 1195 binaries, 0 generals, 0 SOSs, and 0 indicators.
Presolve time = 0.00 sec. (4.53 ticks)
Probing fixed 0 vars, tightened 5487 bounds.
Probing time = 0.01 sec. (18.38 ticks)
Tried aggregator 2 times.
Detecting symmetries...
MIP Presolve modified 1206 coefficients.
Aggregator did 10 substitutions.
Reduced MIP has 2505 rows, 2975 columns, and 7735 nonzeros.
Reduced MIP has 1195 binaries, 0 generals, 0 SOSs, and 0 indicators.
Presolve time = 0.00 sec. (6.66 ticks)
Probing fixed 0 vars, tightened 2401 bounds.
Probing time = 0.00 sec. (6.41 ticks)
Clique table members: 190.
MIP emphasis: integer feasibility.
MIP search method: dynamic search.
Parallel mode: deterministic, using up to 8 threads.
Root relaxation solution time = 0.01 sec. (9.71 ticks)

        Nodes                                         Cuts/
   Node  Left     Objective  IInf  Best Integer    Best Bound    ItCnt     Gap

      0     0   348385.3466   472                 348385.3466      882         
      0     0   572993.6826   462                   Cuts: 726     1894         
      0     0   807159.4456   704                   Cuts: 726     2768         
      0     0   945132.1728   699                   Cuts: 726     3494         
*     0+    0                       1.01740e+07   945132.1728            90.71%
*     0+    0                      7973370.0000   945132.1728            88.15%
Detecting symmetries...
      0     2   945132.1728   699  7973370.0000   945132.1728     3494   88.15%
Elapsed time = 0.40 sec. (557.38 ticks, tree = 0.02 MB, solutions = 2)
    205   177   967541.0480   777  7973370.0000   946425.4024     8000   88.13%
    615   515  1003758.2140   623  7973370.0000   946425.4024    12429   88.13%
   1216  1123  1039157.2685   552  7973370.0000   946425.4024    19306   88.13%

Performing restart 1

Repeating presolve.
Tried aggregator 1 time.
MIP Presolve modified 1154 coefficients.
Reduced MIP has 2505 rows, 2975 columns, and 7735 nonzeros.
Reduced MIP has 1195 binaries, 0 generals, 0 SOSs, and 0 indicators.
Presolve time = 0.00 sec. (3.78 ticks)
Tried aggregator 1 time.
MIP Presolve modified 1007 coefficients.
Reduced MIP has 2505 rows, 2975 columns, and 7735 nonzeros.
Reduced MIP has 1195 binaries, 0 generals, 0 SOSs, and 0 indicators.
Presolve time = 0.00 sec. (5.12 ticks)
Represolve time = 0.02 sec. (18.34 ticks)
   1738     0  1093212.2999   710  7973370.0000     Cuts: 726    31977   86.29%
   1738     0  1186745.5344   709  7973370.0000     Cuts: 726    32728   85.12%
   1738     0  1265690.6185   715  7973370.0000     Cuts: 726    33506   84.13%
   1738     2  1265690.6185   715  7973370.0000  1265690.6185    33506   84.13%
   1758    22  1295147.2601   643  7973370.0000  1266140.7049    34290   84.12%
   1782    46  1308878.3899   549  7973370.0000  1266140.7049    34977   84.12%
   1791     7  1271858.8456   688  7973370.0000  1266140.7049    33711   84.12%
   1800    62  1353154.8852   715  7973370.0000  1266140.7049    43519   84.12%
   1824    81  1349975.4631   730  7973370.0000  1267014.6775    52098   84.11%
   2289   448  1479482.5603   405  7973370.0000  1275960.2064    78890   84.00%
Elapsed time = 4.06 sec. (5514.54 ticks, tree = 0.79 MB, solutions = 2)
*  2483+  506                      1737097.0000  1275960.2064            26.55%
*  2719+  815                      1718478.0000  1275960.2064            25.75%
Starting limited solution polishing.
*  2929+  784                      1716896.0000  1275960.2064            25.68%
*  2935+  784                      1702395.0000  1275960.2064            25.05%
*  2937+  784                      1645877.0000  1275960.2064            22.48%
*  3140+ 1108                      1629188.0000  1275960.2064            21.68%
*  3144+ 1108                      1624668.0000  1275960.2064            21.46%
*  3148+ 1108                      1622756.0000  1275960.2064            21.37%
   3148  1063  1431993.2448   525  1622756.0000  1275960.2064   107442   21.37%

Cover cuts applied:  26
Implied bound cuts applied:  17
Flow cuts applied:  590
Mixed integer rounding cuts applied:  1028
Flow path cuts applied:  111
Multi commodity flow cuts applied:  17
Lift and project cuts applied:  7
Gomory fractional cuts applied:  1

Root node processing (before b&c):
  Real time             =    0.40 sec. (553.70 ticks)
Parallel b&c, 8 threads:
  Real time             =    4.61 sec. (6167.16 ticks)
  Sync time (average)   =    0.30 sec.
  Wait time (average)   =    0.00 sec.
                          ------------
Total (root+branch&cut) =    5.00 sec. (6720.86 ticks)
Gap: 21.37%
Upper bound: 1.62276e+06
Lower bound: 1.27596e+06
Termination status: Normal
End of CPLEX run. Time: 5.0044 seconds

===== New CPLEX run =====
Instance: /home/yorig/tuner/mpils-tests/instances/miplib/easy/lotsize.mps
Config: /scratch/yorig/mpils-results-grid-seconds-5-watchdog/easy/24proc/seed-5/4_lotsize_seed-5_20260504_011421/expansion/config_param_CPXPARAM_MIP_Strategy_VariableSelect_2_iter_1.prm
========================

Selected objective sense:  MINIMIZE
Selected objective  name:  R1921
Selected RHS        name:  B
Selected bound      name:  BOUND
Wall watchdog: enabled factor=1 grace=1 limit=6 seconds
Version identifier: 22.1.2.0 | 2024-11-26 | 0edbb82fd
CPXPARAM_Threads                                 8
CPXPARAM_Parallel                                1
CPXPARAM_MIP_Cuts_Cliques                        -1
CPXPARAM_MIP_Strategy_VariableSelect             2
CPXPARAM_MIP_Cuts_Implied                        1
CPXPARAM_MIP_Limits_GomoryCand                   25
CPXPARAM_MIP_Cuts_Gomory                         1
CPXPARAM_MIP_Cuts_PathCut                        2
CPXPARAM_MIP_Cuts_Disjunctive                    -1
CPXPARAM_Emphasis_MIP                            1
CPXPARAM_TimeLimit                               5
Tried aggregator 1 time.
MIP Presolve eliminated 595 rows and 0 columns.
MIP Presolve added 1190 rows and 0 columns.
MIP Presolve modified 10 coefficients.
Reduced MIP has 2515 rows, 2985 columns, and 7755 nonzeros.
Reduced MIP has 1195 binaries, 0 generals, 0 SOSs, and 0 indicators.
Presolve time = 0.00 sec. (4.53 ticks)
Probing fixed 0 vars, tightened 5487 bounds.
Probing time = 0.01 sec. (18.38 ticks)
Tried aggregator 2 times.
Detecting symmetries...
MIP Presolve modified 1206 coefficients.
Aggregator did 10 substitutions.
Reduced MIP has 2505 rows, 2975 columns, and 7735 nonzeros.
Reduced MIP has 1195 binaries, 0 generals, 0 SOSs, and 0 indicators.
Presolve time = 0.00 sec. (6.66 ticks)
Probing fixed 0 vars, tightened 2401 bounds.
Probing time = 0.00 sec. (6.41 ticks)
Clique table members: 190.
MIP emphasis: integer feasibility.
MIP search method: dynamic search.
Parallel mode: deterministic, using up to 8 threads.
Root relaxation solution time = 0.01 sec. (9.71 ticks)

        Nodes                                         Cuts/
   Node  Left     Objective  IInf  Best Integer    Best Bound    ItCnt     Gap

      0     0   348385.3466   472                 348385.3466      882         
      0     0   572993.6826   462                   Cuts: 726     1894         
      0     0   807159.4456   704                   Cuts: 726     2768         
      0     0   945132.1728   699                   Cuts: 726     3494         
*     0+    0                       1.01740e+07   945132.1728            90.71%
*     0+    0                      7973370.0000   945132.1728            88.15%
Detecting symmetries...
      0     2   945132.1728   708  7973370.0000   945132.1728     3494   88.15%
Elapsed time = 0.47 sec. (697.92 ticks, tree = 0.02 MB, solutions = 2)
      2     4   947062.8776   706  7973370.0000   947513.8730     3519   88.12%
     10     7   992101.0919   788  7973370.0000   959390.8338     3810   87.97%
     28    21  1021775.4206   819  7973370.0000   966686.9671     5576   87.88%
    237    77  1036709.7358   771  7973370.0000   970888.2043     6913   87.82%
    580   509  1150825.8359   707  7973370.0000   970888.2043    10653   87.82%
    861   817  1245403.2438   598  7973370.0000   970888.2043    14098   87.82%
   1129   989  1409197.1251   492  7973370.0000   970888.2043    16335   87.82%
   1417  1284  1556376.3948   376  7973370.0000   970888.2043    20236   87.82%
   1711  1573  1748568.0782   295  7973370.0000   970888.2043    24505   87.82%

Performing restart 1

Repeating presolve.
Tried aggregator 1 time.
MIP Presolve modified 1154 coefficients.
Reduced MIP has 2505 rows, 2975 columns, and 7735 nonzeros.
Reduced MIP has 1195 binaries, 0 generals, 0 SOSs, and 0 indicators.
Presolve time = 0.00 sec. (3.78 ticks)
Tried aggregator 1 time.
MIP Presolve modified 1011 coefficients.
Reduced MIP has 2505 rows, 2975 columns, and 7735 nonzeros.
Reduced MIP has 1195 binaries, 0 generals, 0 SOSs, and 0 indicators.
Presolve time = 0.00 sec. (5.12 ticks)
Represolve time = 0.02 sec. (18.57 ticks)
   1751     0  1095251.7465   713  7973370.0000     Cuts: 726    30752   86.26%
   1751     0  1190171.8474   697  7973370.0000     Cuts: 726    31579   85.07%
   1751     0  1262167.2884   699  7973370.0000     Cuts: 726    32363   84.17%
   1751     2  1262167.2884   704  7973370.0000  1262167.2884    32363   84.17%
Elapsed time = 3.85 sec. (5525.40 ticks, tree = 0.02 MB, solutions = 2)
   1766     4  1296421.7639   688  7973370.0000  1266546.5694    32438   84.12%
*  1770+    6                      4981551.0000  1266546.5694            74.58%
*  1770+    7                      4981551.0000  1266546.5694            74.58%
*  1770+    6                      4513581.0000  1266546.5694            71.94%
*  1770+    7                      4513581.0000  1266546.5694            71.94%
*  1770+    6                      4272848.0000  1266546.5694            70.36%
*  1770+    7                      2975312.0000  1266546.5694            57.43%
*  1770+    7                      2864584.0000  1266546.5694            55.79%
*  1770+    7                      2804768.0000  1266546.5694            54.84%
*  1772+    6                      2787166.0000  1266546.5694            54.56%

Cover cuts applied:  25
Implied bound cuts applied:  16
Flow cuts applied:  547
Mixed integer rounding cuts applied:  1023
Flow path cuts applied:  108
Multi commodity flow cuts applied:  19
Lift and project cuts applied:  6
Gomory fractional cuts applied:  1

Root node processing (before b&c):
  Real time             =    0.47 sec. (694.39 ticks)
Parallel b&c, 8 threads:
  Real time             =    4.54 sec. (6665.98 ticks)
  Sync time (average)   =    0.45 sec.
  Wait time (average)   =    0.00 sec.
                          ------------
Total (root+branch&cut) =    5.01 sec. (7360.36 ticks)
Gap: 54.46%
Upper bound: 2.78717e+06
Lower bound: 1.26926e+06
Termination status: Normal
End of CPLEX run. Time: 5.00652 seconds
